objective value:                                  -77
t_x2                                                1 	(obj:-100)
t_y2_209                                            1 	(obj:1)
t_y2_319                                            1 	(obj:1)
t_y2_372                                            1 	(obj:1)
t_y2_229                                            1 	(obj:1)
t_y2_148                                            1 	(obj:1)
t_y2_173                                            1 	(obj:1)
t_y2_32                                             1 	(obj:1)
t_y2_5                                              1 	(obj:1)
t_y2_90                                             1 	(obj:1)
t_y2_147                                            1 	(obj:1)
t_y2_91                                             1 	(obj:1)
t_y2_140                                            1 	(obj:1)
t_y2_391                                            1 	(obj:1)
t_y2_311                                            1 	(obj:1)
t_y2_108                                            1 	(obj:1)
t_y2_306                                            1 	(obj:1)
t_y2_113                                            1 	(obj:1)
t_y2_274                                            1 	(obj:1)
t_y2_239                                            1 	(obj:1)
t_y2_98                                             1 	(obj:1)
t_y2_70                                             1 	(obj:1)
t_y2_13                                             1 	(obj:1)
t_y2_208                                            1 	(obj:1)
